(assert (forall ((pkt_0_6_8_0  Int  )(pkt_1_7_9_0  Int  )(state_group_0_state_0_8_a_0  Int  )(state_group_1_state_0_9_b_0  Int  )(state_group_2_state_0_a_c_0  Int  )) (let ((_n0 pkt_0_6_8_0 ))
(let ((_n1 (-  _n0 )))
(let ((_n2 false ))
(let ((_n3 (<   (ite  _n2  1 0)   _n1 ) ))
(let ((_n4 (not  _n3 ) ))
(let ((_n6 state_group_0_state_0_8_a_0 ))
(let ((_n7 (+   _n6   _n0 ) ))
(let ((_n8 (<   (ite  _n2  1 0)   _n0 ) ))
(let ((_n9 (ite  _n8   _n0   (ite  _n2  1 0)  ) ))
(let ((_n10 (+   _n6   _n9 ) ))
(let ((_n11 (ite (=  (ite  _n8  1 0)  1)  _n10   _n6  ) ))
(let ((_n12 (=   _n11   _n7 ) ))
(let ((_n14 30 ))
(let ((_n15 pkt_1_7_9_0 ))
(let ((_n16 (<   _n15   _n14 ) ))
(let ((_n17 state_group_1_state_0_9_b_0 ))
(let ((_n18 (+   _n17   _n15 ) ))
(let ((_n19 (ite  _n16   _n18   _n17  ) ))
(let ((_n20 (ite (=  _n0  0)  _n15   (ite  _n2  1 0)  ) ))
(let ((_n21 (ite (=  _n0  0)  _n20   _n15  ) ))
(let ((_n22 (=   _n21   (ite  _n2  1 0) ) ))
(let ((_n23 (not  _n22 ) ))
(let ((_n24 (ite (=  _n21  0)  (ite  _n2  1 0)   _n21  ) ))
(let ((_n25 (+   _n17   _n24 ) ))
(let ((_n26 (ite (=  (ite  _n23  1 0)  1)  _n25   _n17  ) ))
(let ((_n27 (=   _n26   _n19 ) ))
(let ((_n29 state_group_2_state_0_a_c_0 ))
(let ((_n30 true ))
(let ((_n31 (+   _n29   (ite  _n30  1 0) ) ))
(let ((_n32 (ite  _n16   _n31   _n29  ) ))
(let ((_n33 (=   _n31   _n32 ) ))
(let ((_n35 2 ))
(let ((_n36 (+   _n1   _n35 ) ))
(let ((_n37 (-  _n36 )))
(let ((_n38 (+   _n35   _n37 ) ))
(let ((_n39 (=   _n38   _n0 ) ))
(let ((_n41 (ite (=  (ite  _n23  1 0)  1)  _n24   (ite  _n2  1 0)  ) ))
(let ((_n42 (=   _n41   _n15 ) ))
(implies  (and (and (>= state_group_2_state_0_a_c_0 0) (< state_group_2_state_0_a_c_0 1024 ))  (and (and (>= state_group_1_state_0_9_b_0 0) (< state_group_1_state_0_9_b_0 1024 ))  (and (and (>= state_group_0_state_0_8_a_0 0) (< state_group_0_state_0_8_a_0 1024 ))  (and (and (>= pkt_1_7_9_0 0) (< pkt_1_7_9_0 1024 ))  (and (>= pkt_0_6_8_0 0) (< pkt_0_6_8_0 1024 )) ) ) ) )   (and  _n4  _n12  _n27  _n33  _n39  _n42 )  )))))))))))))))))))))))))))))))))))))))))
(check-sat)
(get-model)
(exit)